K = 3;
V = 25;
edge_weight = [|0, -1, -1, -1, -1, -1, 18, -1, -1, -1, -1, -1, -1, -1, 37, -1, -1, -1, -1, -1, -1, -1, -1, -1, -1|
-1, 0, -1, -1, -1, 19, -1, -1, -1, 36, 57, 67, -1, 75, -1, 58, -1, -1, -1, -1, -1, -1, -1, -1, -1|
42, -1, 0, -1, -1, -1, -1, 39, 63, 74, -1, -1, -1, -1, 10, -1, -1, -1, -1, -1, 85, -1, -1, -1, -1|
-1, -1, 58, 0, 63, -1, -1, 69, -1, -1, -1, 77, -1, -1, -1, -1, 40, -1, -1, -1, -1, -1, -1, 30, -1|
-1, -1, -1, -1, 0, -1, 84, -1, -1, -1, 82, -1, -1, -1, -1, -1, -1, -1, -1, 51, -1, -1, -1, -1, 32|
-1, 6, -1, -1, -1, 0, -1, -1, -1, 13, -1, -1, -1, -1, -1, -1, 5, -1, -1, -1, 65, -1, -1, 66, -1|
-1, -1, -1, -1, -1, 35, 0, -1, -1, 90, -1, -1, 60, -1, -1, 1, -1, -1, -1, 40, -1, -1, -1, -1, -1|
-1, -1, -1, -1, -1, -1, -1, 0, 13, -1, 80, -1, -1, -1, -1, -1, -1, -1, -1, 53, -1, -1, 53, -1, -1|
-1, -1, -1, -1, -1, -1, -1, -1, 0, -1, -1, -1, -1, -1, -1, -1, -1, 83, -1, -1, -1, 64, -1, -1, 96|
-1, 26, -1, -1, 18, -1, -1, -1, -1, 0, -1, -1, -1, 75, -1, -1, -1, -1, -1, -1, -1, -1, -1, -1, -1|
-1, -1, -1, -1, -1, 59, -1, -1, -1, -1, 0, -1, -1, -1, -1, -1, -1, -1, -1, -1, 72, -1, -1, 8, 17|
89, 72, -1, -1, -1, -1, 56, 71, 21, 99, -1, 0, 45, -1, -1, -1, -1, -1, -1, -1, 55, 4, -1, -1, -1|
-1, 51, 64, -1, -1, -1, 23, 56, -1, -1, -1, -1, 0, -1, 65, 21, -1, -1, -1, -1, -1, -1, -1, -1, 64|
-1, -1, -1, -1, 74, -1, -1, -1, -1, -1, -1, -1, -1, 0, 15, -1, 9, 72, -1, 38, -1, -1, -1, -1, -1|
-1, -1, 86, -1, -1, -1, -1, -1, -1, -1, 40, 58, -1, 5, 0, 95, -1, 77, -1, -1, -1, -1, -1, -1, -1|
-1, -1, -1, 47, 4, -1, -1, -1, -1, -1, 26, -1, 32, -1, -1, 0, -1, -1, -1, -1, -1, 22, -1, -1, 36|
-1, -1, -1, -1, -1, -1, -1, -1, -1, -1, -1, 8, -1, 44, -1, -1, 0, -1, -1, -1, -1, -1, 74, -1, -1|
-1, 17, -1, -1, -1, -1, -1, -1, 88, 19, -1, -1, -1, -1, -1, -1, 72, 0, 15, 87, -1, 90, -1, -1, -1|
-1, -1, -1, -1, -1, -1, -1, -1, -1, -1, -1, -1, -1, -1, -1, -1, -1, -1, 0, 92, -1, 78, -1, -1, -1|
-1, -1, -1, -1, -1, 34, -1, -1, 14, -1, 13, -1, 5, -1, -1, 97, -1, -1, -1, 0, -1, 5, -1, -1, -1|
-1, -1, -1, -1, -1, -1, -1, -1, -1, -1, -1, -1, -1, -1, -1, 38, -1, -1, -1, 37, 0, -1, -1, 36, 81|
100, -1, -1, -1, 2, -1, 25, -1, -1, 93, 94, -1, -1, -1, -1, -1, -1, 27, -1, 32, -1, 0, -1, -1, -1|
66, -1, -1, 76, -1, -1, -1, -1, 83, -1, -1, -1, -1, -1, -1, -1, -1, -1, -1, -1, -1, -1, 0, 24, -1|
-1, -1, 13, -1, -1, 84, -1, 72, 43, -1, -1, 29, -1, -1, -1, -1, -1, 93, -1, -1, -1, -1, -1, 0, -1|
-1, -1, -1, -1, -1, -1, -1, 31, -1, -1, 52, -1, -1, 8, -1, -1, -1, -1, -1, 49, -1, -1, 44, -1, 0|];
